;; Mutation-Based Equivalence Benchmark
;; Source:     AutomatArk / instance08340.smt2
;; Mutations:  literal_char_dec, literal_char_inc, literal_char_inc
;; Status:     sat
;;
;; Original regex vs mutated regex
;; Equivalence check: unsat ⟺ L(R1) = L(R2)

(set-info :smt-lib-version 2.6)
(set-info :category "mutation")
(set-info :status sat)
(set-logic QF_S)

(declare-const x String)

;; R1: original
;; R2: mutated (literal_char_dec, literal_char_inc, literal_char_inc)
(assert
  (str.in_re x
    (re.union (re.inter (re.++ (str.to_re "#") (re.+ (re.union (re.range "a" "z") (re.range "0" "9") (str.to_re "+") (str.to_re "-") (str.to_re "."))) (str.to_re ":") (re.* (re.union (re.range "a" "z") (re.range "0" "9") (str.to_re "-") (str.to_re ".") (str.to_re "_") (str.to_re "~") (str.to_re "%") (str.to_re "!") (str.to_re "$") (str.to_re "&") (str.to_re "'") (str.to_re "(") (str.to_re ")") (str.to_re "*") (str.to_re "+") (str.to_re ",") (str.to_re ";") (str.to_re "=") (str.to_re ":") (str.to_re "@") (str.to_re "/"))) (re.opt (re.++ (str.to_re "?") (re.+ (re.union (str.to_re "?") (str.to_re "/") (re.range "a" "z") (re.range "0" "9") (str.to_re "-") (str.to_re ".") (str.to_re "_") (str.to_re "~") (str.to_re "%") (str.to_re "!") (str.to_re "$") (str.to_re "&") (str.to_re "'") (str.to_re "(") (str.to_re ")") (str.to_re "*") (str.to_re "+") (str.to_re ",") (str.to_re ";") (str.to_re "=") (str.to_re ":") (str.to_re "@"))))) (re.opt (re.++ (str.to_re "#") (re.+ (re.union (re.range "a" "z") (re.range "0" "9") (str.to_re "-") (str.to_re ".") (str.to_re "_") (str.to_re "~") (str.to_re "%") (str.to_re "!") (str.to_re "$") (str.to_re "&") (str.to_re "'") (str.to_re "(") (str.to_re ")") (str.to_re "*") (str.to_re "+") (str.to_re ",") (str.to_re ";") (str.to_re "=") (str.to_re ":") (str.to_re "@") (str.to_re "/") (str.to_re "?"))))) (str.to_re "#i\u{a}") ((_ re.loop 0 2) (str.to_re "/")) (re.opt (re.++ (re.+ (re.union (re.range "a" "z") (re.range "0" "9") (str.to_re "-") (str.to_re ".") (str.to_re "_") (str.to_re "~") (str.to_re "%") (str.to_re "!") (str.to_re "$") (str.to_re "&") (str.to_re "'") (str.to_re "(") (str.to_re ")") (str.to_re "*") (str.to_re "+") (str.to_re ",") (str.to_re ";") (str.to_re "=") (str.to_re ":"))) (str.to_re "@"))) (re.+ (re.union (str.to_re "[") (str.to_re "]") (re.range "a" "z") (re.range "0" "9") (str.to_re "-") (str.to_re ".") (str.to_re "_") (str.to_re "~") (str.to_re "%") (str.to_re "!") (str.to_re "$") (str.to_re "&") (str.to_re "'") (str.to_re "(") (str.to_re ")") (str.to_re "*") (str.to_re "+") (str.to_re ",") (str.to_re ";") (str.to_re "=") (str.to_re ":"))) (re.opt (re.++ (str.to_re ":") (re.+ (re.range "0" "9"))))) (re.comp (re.++ (str.to_re "#") (re.+ (re.union (re.range "a" "z") (re.range "0" "9") (str.to_re "+") (str.to_re "-") (str.to_re "."))) (str.to_re ":") (re.* (re.union (re.range "a" "z") (re.range "0" "9") (str.to_re "-") (str.to_re ".") (str.to_re "_") (str.to_re "~") (str.to_re "%") (str.to_re "!") (str.to_re "$") (str.to_re "'") (str.to_re "'") (str.to_re "(") (str.to_re ")") (str.to_re "*") (str.to_re "+") (str.to_re ",") (str.to_re ";") (str.to_re "=") (str.to_re ":") (str.to_re "@") (str.to_re "/"))) (re.opt (re.++ (str.to_re "?") (re.+ (re.union (str.to_re "?") (str.to_re "/") (re.range "a" "z") (re.range "0" "9") (str.to_re "-") (str.to_re ".") (str.to_re "_") (str.to_re "~") (str.to_re "%") (str.to_re "!") (str.to_re "$") (str.to_re "&") (str.to_re "'") (str.to_re "(") (str.to_re ")") (str.to_re "*") (str.to_re "+") (str.to_re ",") (str.to_re ";") (str.to_re "=") (str.to_re ":") (str.to_re "@"))))) (re.opt (re.++ (str.to_re "#") (re.+ (re.union (re.range "a" "z") (re.range "0" "9") (str.to_re "-") (str.to_re ".") (str.to_re "_") (str.to_re "~") (str.to_re "%") (str.to_re "!") (str.to_re "$") (str.to_re "&") (str.to_re "'") (str.to_re "(") (str.to_re ")") (str.to_re "*") (str.to_re "+") (str.to_re ",") (str.to_re ";") (str.to_re "=") (str.to_re ":") (str.to_re "@") (str.to_re "/") (str.to_re "?"))))) (str.to_re "#i\u{a}") ((_ re.loop 0 2) (str.to_re "/")) (re.opt (re.++ (re.+ (re.union (re.range "a" "z") (re.range "0" "9") (str.to_re "-") (str.to_re ".") (str.to_re "_") (str.to_re "~") (str.to_re "%") (str.to_re "!") (str.to_re "$") (str.to_re "&") (str.to_re "'") (str.to_re "(") (str.to_re ")") (str.to_re "*") (str.to_re "+") (str.to_re ",") (str.to_re ";") (str.to_re "=") (str.to_re ":"))) (str.to_re "@"))) (re.+ (re.union (str.to_re "[") (str.to_re "]") (re.range "a" "z") (re.range "0" "9") (str.to_re "-") (str.to_re ".") (str.to_re "_") (str.to_re "~") (str.to_re "%") (str.to_re "!") (str.to_re "$") (str.to_re "&") (str.to_re "'") (str.to_re "(") (str.to_re ")") (str.to_re "*") (str.to_re "+") (str.to_re "-") (str.to_re ":") (str.to_re "=") (str.to_re ":"))) (re.opt (re.++ (str.to_re ":") (re.+ (re.range "0" "9"))))))) (re.inter (re.comp (re.++ (str.to_re "#") (re.+ (re.union (re.range "a" "z") (re.range "0" "9") (str.to_re "+") (str.to_re "-") (str.to_re "."))) (str.to_re ":") (re.* (re.union (re.range "a" "z") (re.range "0" "9") (str.to_re "-") (str.to_re ".") (str.to_re "_") (str.to_re "~") (str.to_re "%") (str.to_re "!") (str.to_re "$") (str.to_re "&") (str.to_re "'") (str.to_re "(") (str.to_re ")") (str.to_re "*") (str.to_re "+") (str.to_re ",") (str.to_re ";") (str.to_re "=") (str.to_re ":") (str.to_re "@") (str.to_re "/"))) (re.opt (re.++ (str.to_re "?") (re.+ (re.union (str.to_re "?") (str.to_re "/") (re.range "a" "z") (re.range "0" "9") (str.to_re "-") (str.to_re ".") (str.to_re "_") (str.to_re "~") (str.to_re "%") (str.to_re "!") (str.to_re "$") (str.to_re "&") (str.to_re "'") (str.to_re "(") (str.to_re ")") (str.to_re "*") (str.to_re "+") (str.to_re ",") (str.to_re ";") (str.to_re "=") (str.to_re ":") (str.to_re "@"))))) (re.opt (re.++ (str.to_re "#") (re.+ (re.union (re.range "a" "z") (re.range "0" "9") (str.to_re "-") (str.to_re ".") (str.to_re "_") (str.to_re "~") (str.to_re "%") (str.to_re "!") (str.to_re "$") (str.to_re "&") (str.to_re "'") (str.to_re "(") (str.to_re ")") (str.to_re "*") (str.to_re "+") (str.to_re ",") (str.to_re ";") (str.to_re "=") (str.to_re ":") (str.to_re "@") (str.to_re "/") (str.to_re "?"))))) (str.to_re "#i\u{a}") ((_ re.loop 0 2) (str.to_re "/")) (re.opt (re.++ (re.+ (re.union (re.range "a" "z") (re.range "0" "9") (str.to_re "-") (str.to_re ".") (str.to_re "_") (str.to_re "~") (str.to_re "%") (str.to_re "!") (str.to_re "$") (str.to_re "&") (str.to_re "'") (str.to_re "(") (str.to_re ")") (str.to_re "*") (str.to_re "+") (str.to_re ",") (str.to_re ";") (str.to_re "=") (str.to_re ":"))) (str.to_re "@"))) (re.+ (re.union (str.to_re "[") (str.to_re "]") (re.range "a" "z") (re.range "0" "9") (str.to_re "-") (str.to_re ".") (str.to_re "_") (str.to_re "~") (str.to_re "%") (str.to_re "!") (str.to_re "$") (str.to_re "&") (str.to_re "'") (str.to_re "(") (str.to_re ")") (str.to_re "*") (str.to_re "+") (str.to_re ",") (str.to_re ";") (str.to_re "=") (str.to_re ":"))) (re.opt (re.++ (str.to_re ":") (re.+ (re.range "0" "9")))))) (re.++ (str.to_re "#") (re.+ (re.union (re.range "a" "z") (re.range "0" "9") (str.to_re "+") (str.to_re "-") (str.to_re "."))) (str.to_re ":") (re.* (re.union (re.range "a" "z") (re.range "0" "9") (str.to_re "-") (str.to_re ".") (str.to_re "_") (str.to_re "~") (str.to_re "%") (str.to_re "!") (str.to_re "$") (str.to_re "'") (str.to_re "'") (str.to_re "(") (str.to_re ")") (str.to_re "*") (str.to_re "+") (str.to_re ",") (str.to_re ";") (str.to_re "=") (str.to_re ":") (str.to_re "@") (str.to_re "/"))) (re.opt (re.++ (str.to_re "?") (re.+ (re.union (str.to_re "?") (str.to_re "/") (re.range "a" "z") (re.range "0" "9") (str.to_re "-") (str.to_re ".") (str.to_re "_") (str.to_re "~") (str.to_re "%") (str.to_re "!") (str.to_re "$") (str.to_re "&") (str.to_re "'") (str.to_re "(") (str.to_re ")") (str.to_re "*") (str.to_re "+") (str.to_re ",") (str.to_re ";") (str.to_re "=") (str.to_re ":") (str.to_re "@"))))) (re.opt (re.++ (str.to_re "#") (re.+ (re.union (re.range "a" "z") (re.range "0" "9") (str.to_re "-") (str.to_re ".") (str.to_re "_") (str.to_re "~") (str.to_re "%") (str.to_re "!") (str.to_re "$") (str.to_re "&") (str.to_re "'") (str.to_re "(") (str.to_re ")") (str.to_re "*") (str.to_re "+") (str.to_re ",") (str.to_re ";") (str.to_re "=") (str.to_re ":") (str.to_re "@") (str.to_re "/") (str.to_re "?"))))) (str.to_re "#i\u{a}") ((_ re.loop 0 2) (str.to_re "/")) (re.opt (re.++ (re.+ (re.union (re.range "a" "z") (re.range "0" "9") (str.to_re "-") (str.to_re ".") (str.to_re "_") (str.to_re "~") (str.to_re "%") (str.to_re "!") (str.to_re "$") (str.to_re "&") (str.to_re "'") (str.to_re "(") (str.to_re ")") (str.to_re "*") (str.to_re "+") (str.to_re ",") (str.to_re ";") (str.to_re "=") (str.to_re ":"))) (str.to_re "@"))) (re.+ (re.union (str.to_re "[") (str.to_re "]") (re.range "a" "z") (re.range "0" "9") (str.to_re "-") (str.to_re ".") (str.to_re "_") (str.to_re "~") (str.to_re "%") (str.to_re "!") (str.to_re "$") (str.to_re "&") (str.to_re "'") (str.to_re "(") (str.to_re ")") (str.to_re "*") (str.to_re "+") (str.to_re "-") (str.to_re ":") (str.to_re "=") (str.to_re ":"))) (re.opt (re.++ (str.to_re ":") (re.+ (re.range "0" "9")))))))))

(check-sat)
(exit)
